(set-logic ALL)
(declare-fun var0 () String)
(assert (str.in_re var0 (re.++ (re.union (re.+ (re.union (str.to_re "000") (str.to_re "11"))) (re.+ (re.union (str.to_re "22") (str.to_re "3")))) (re.* (re.+ (re.* (str.to_re "444")))))))
(assert (<= 15 (str.len var0)))
(check-sat)